c ren 1 -> 1
c ren 2 -> 2
c ren 3 -> 3
c ren 4 -> 4
c ren 5 -> 5
c ren 6 -> 6
c ren 7 -> 7
c ren 8 -> 8
c ren 9 -> 9
c ren 10 -> 10
c ren 11 -> 11
c ren 12 -> 12
c ren 13 -> 13
c ren 14 -> 14
c ren 15 -> 15
c ren 17 -> 16
c ren 20 -> 17
c ren 24 -> 18
c ren 30 -> 19
c ren 35 -> 20
p cnf 20 45
a 1 2 3 4 5 6 7 8 9 10 11 0
d 12 2 5 0
d 13 3 6 0
d 14 1 4 0
d 15 3 6 0
e 16 17 18 19 20 0
-2 -5 7 16 0
-2 5 -7 16 0
2 5 7 16 0
2 -5 -7 16 0
-1 -4 8 17 0
-1 4 -8 17 0
1 4 8 17 0
1 -4 -8 17 0
-9 -10 13 15 -16 -17 -18 -19 -20 0
-3 -6 9 18 0
-3 6 -9 18 0
3 6 9 18 0
3 -6 -9 18 0
3 10 -15 -16 -17 -18 -19 -20 0
-7 -8 -10 19 0
5 8 10 19 0
2 11 12 20 0
5 11 14 20 0
5 11 12 20 0
6 10 -15 -16 -17 -18 -19 -20 0
5 7 10 19 0
-11 -12 -14 20 0
-2 -5 -11 20 0
-2 -5 -10 19 0
2 11 14 20 0
3 9 -15 -16 -17 -18 -19 -20 0
-7 -8 -14 -16 -17 -18 -19 -20 0
2 8 10 19 0
7 8 -14 -16 -17 -18 -19 -20 0
7 8 -12 -16 -17 -18 -19 -20 0
9 10 -11 13 -16 -17 -18 -19 -20 0
-7 8 12 14 -16 -17 -18 -19 -20 0
-9 10 -11 -13 -16 -17 -18 -19 -20 0
-9 10 11 13 -16 -17 -18 -19 -20 0
9 -10 -11 -13 -16 -17 -18 -19 -20 0
7 -8 12 14 -16 -17 -18 -19 -20 0
-7 -8 -12 -16 -17 -18 -19 -20 0
9 10 11 -13 -16 -17 -18 -19 -20 0
6 10 -11 -13 -16 -17 -18 -19 -20 0
-9 -10 -11 13 -16 -17 -18 -19 -20 0
9 -10 11 13 -16 -17 -18 -19 -20 0
6 9 -11 -13 -16 -17 -18 -19 -20 0
3 10 -11 -13 -16 -17 -18 -19 -20 0
-9 -10 11 -13 -16 -17 -18 -19 -20 0
-9 -10 11 15 -16 -17 -18 -19 -20 0
